
  22   10
  10   10   10   10   10   10   10   10   10   10

   0   0   0   0   0   0   0   0   0   0   0   6 2 4 6 8 9 21 
   6  10  10  10  10  10  10  10  10  10  10   2 12 3 
   7  10  10  10  10  10  10  10  10  10  10   3 20 11 5 
   6  10  10  10  10  10  10  10  10  10  10   3 20 11 5 
  10  10  10  10  10  10  10  10  10  10  10   3 18 16 7 
   2  10  10  10  10  10  10  10  10  10  10   5 18 16 12 11 10 
   8  10  10  10  10  10  10  10  10  10  10   5 19 17 14 13 10 
   2  10  10  10  10  10  10  10  10  10  10   5 20 17 16 14 13 
   7  10  10  10  10  10  10  10  10  10  10   3 13 11 10 
   7  10  10  10  10  10  10  10  10  10  10   1 15 
   2  10  10  10  10  10  10  10  10  10  10   1 14 
   3  10  10  10  10  10  10  10  10  10  10   1 13 
   7  10  10  10  10  10  10  10  10  10  10   1 22
   3  10  10  10  10  10  10  10  10  10  10   1 22
   1  10  10  10  10  10  10  10  10  10  10   1 22
   8  10  10  10  10  10  10  10  10  10  10   1 22
   9  10  10  10  10  10  10  10  10  10  10   1 22
   2  10  10  10  10  10  10  10  10  10  10   1 22
   5  10  10  10  10  10  10  10  10  10  10   1 22
   9  10  10  10  10  10  10  10  10  10  10   1 22
   1  10  10  10  10  10  10  10  10  10  10   1 22
   0   0   0   0   0   0   0   0   0   0   0   0 
